aux_benchmarks/lp2sat/smokers_5_4_prob.lp.lp.cnf
p cnf 26 42
7 22 0
-7 -22 0
8 -7 0
-8 7 0
9 23 0
-9 -23 0
10 -9 0
-10 9 0
11 24 0
-11 -24 0
12 -11 0
-12 11 0
13 25 0
-13 -25 0
14 -13 0
-14 13 0
15 26 0
-15 -26 0
16 -15 0
-16 15 0
17 0
18 0
19 0
20 0
21 0
22 7 0
-22 -7 0
23 9 0
-23 -9 0
24 11 0
-24 -11 0
25 13 0
-25 -13 0
26 15 0
-26 -15 0
-1 0
-1 0
-2 0
-3 0
-4 0
-5 0
-6 0
c p auxilliary 1 2 3 4 5 6 22 23 24 25 26 0
