aux_benchmarks/smokers/smokers_5_4_prob.lp.cnf
p cnf 25 35
16 0
-1 16 0
1 -16 0
17 0
-2 17 0
2 -17 0
18 0
-3 18 0
3 -18 0
19 0
-4 19 0
4 -19 0
20 0
-5 20 0
5 -20 0
21 -7 0
-21 7 0
-6 21 0
6 -21 0
22 -9 0
-22 9 0
-8 22 0
8 -22 0
23 -11 0
-23 11 0
-10 23 0
10 -23 0
24 -13 0
-24 13 0
-12 24 0
12 -24 0
25 -15 0
-25 15 0
-14 25 0
14 -25 0
c p weight 1 1.0;1.0;1.0;1.0;1.0 0
c p weight -1 1.0;1.0;1.0;1.0;1.0 0
c p weight 2 1.0;1.0;1.0;1.0;1.0 0
c p weight -2 1.0;1.0;1.0;1.0;1.0 0
c p weight 3 1.0;1.0;1.0;1.0;1.0 0
c p weight -3 1.0;1.0;1.0;1.0;1.0 0
c p weight 4 1.0;1.0;1.0;1.0;1.0 0
c p weight -4 1.0;1.0;1.0;1.0;1.0 0
c p weight 5 1.0;1.0;1.0;1.0;1.0 0
c p weight -5 1.0;1.0;1.0;1.0;1.0 0
c p weight 6 1.0;1.0;1.0;1.0;1.0 0
c p weight -6 0.0;1.0;1.0;1.0;1.0 0
c p weight 7 0.5;0.5;0.5;0.5;0.5 0
c p weight -7 0.5;0.5;0.5;0.5;0.5 0
c p weight 8 1.0;1.0;1.0;1.0;1.0 0
c p weight -8 1.0;0.0;1.0;1.0;1.0 0
c p weight 9 0.5;0.5;0.5;0.5;0.5 0
c p weight -9 0.5;0.5;0.5;0.5;0.5 0
c p weight 10 1.0;1.0;1.0;1.0;1.0 0
c p weight -10 1.0;1.0;0.0;1.0;1.0 0
c p weight 11 0.5;0.5;0.5;0.5;0.5 0
c p weight -11 0.5;0.5;0.5;0.5;0.5 0
c p weight 12 1.0;1.0;1.0;1.0;1.0 0
c p weight -12 1.0;1.0;1.0;0.0;1.0 0
c p weight 13 0.5;0.5;0.5;0.5;0.5 0
c p weight -13 0.5;0.5;0.5;0.5;0.5 0
c p weight 14 1.0;1.0;1.0;1.0;1.0 0
c p weight -14 1.0;1.0;1.0;1.0;0.0 0
c p weight 15 0.5;0.5;0.5;0.5;0.5 0
c p weight -15 0.5;0.5;0.5;0.5;0.5 0
c p weight 16 1.0;1.0;1.0;1.0;1.0 0
c p weight -16 1.0;1.0;1.0;1.0;1.0 0
c p weight 17 1.0;1.0;1.0;1.0;1.0 0
c p weight -17 1.0;1.0;1.0;1.0;1.0 0
c p weight 18 1.0;1.0;1.0;1.0;1.0 0
c p weight -18 1.0;1.0;1.0;1.0;1.0 0
c p weight 19 1.0;1.0;1.0;1.0;1.0 0
c p weight -19 1.0;1.0;1.0;1.0;1.0 0
c p weight 20 1.0;1.0;1.0;1.0;1.0 0
c p weight -20 1.0;1.0;1.0;1.0;1.0 0
c p weight 21 1.0;1.0;1.0;1.0;1.0 0
c p weight -21 1.0;1.0;1.0;1.0;1.0 0
c p weight 22 1.0;1.0;1.0;1.0;1.0 0
c p weight -22 1.0;1.0;1.0;1.0;1.0 0
c p weight 23 1.0;1.0;1.0;1.0;1.0 0
c p weight -23 1.0;1.0;1.0;1.0;1.0 0
c p weight 24 1.0;1.0;1.0;1.0;1.0 0
c p weight -24 1.0;1.0;1.0;1.0;1.0 0
c p weight 25 1.0;1.0;1.0;1.0;1.0 0
c p weight -25 1.0;1.0;1.0;1.0;1.0 0
c p semirings aspmc.semirings.probabilistic 0
c p quantify 1 2 3 4 5 6 7 8 9 10 11 12 13 14 15 16 17 18 19 20 21 22 23 24 25 0
c p auxilliary 1 2 3 4 5 16 17 18 19 20 21 22 23 24 25 0
